(set-logic QF_S)
(declare-fun var0 () String)
(declare-fun var1 () Int)
(declare-fun var2 () String)
(declare-fun var3 () String)
(declare-fun var4 () String)
(declare-fun var5 () Int)
(declare-fun var6 () Int)
(declare-fun var7 () Int)
(assert (str.prefixof (str.substr (str.at var0 var1) (str.len var2) (str.indexof var3 var4 var5)) (str.at var2 var6)))
(assert (>= (str.len var2) (str.indexof var0 var0 var7)))
(assert (str.contains var3 "CiPo"))
(assert (str.suffixof (str.at var2 var1) (str.substr var4 var5 var7)))
(check-sat)